(set-info :category "industrial")
(set-info :status sat)
(declare-fun x00 () (_ BitVec 8))
(declare-fun x02 () (_ BitVec 8))
(declare-fun x03 () (_ BitVec 8))
(declare-fun x06 () (_ BitVec 8))
(declare-fun x07 () (_ BitVec 8))
(declare-fun x13 () (_ BitVec 8))
(declare-fun x14 () (_ BitVec 8))
(declare-fun x15 () (_ BitVec 8))
(declare-fun x16 () (_ BitVec 8))
(declare-fun x18 () (_ BitVec 8))
(declare-fun x21 () (_ BitVec 8))
(declare-fun x22 () (_ BitVec 8))
(declare-fun x24 () (_ BitVec 8))
(declare-fun x25 () (_ BitVec 8))
(declare-fun x27 () (_ BitVec 8))
(declare-fun x30 () (_ BitVec 8))
(declare-fun x31 () (_ BitVec 8))
(declare-fun x35 () (_ BitVec 8))
(declare-fun x36 () (_ BitVec 8))
(declare-fun x40 () (_ BitVec 8))
(declare-fun x41 () (_ BitVec 8))
(declare-fun x42 () (_ BitVec 8))
(declare-fun x43 () (_ BitVec 8))
(declare-fun x44 () (_ BitVec 8))
(declare-fun x46 () (_ BitVec 8))
(declare-fun x48 () (_ BitVec 8))
(declare-fun x51 () (_ BitVec 8))
(declare-fun x54 () (_ BitVec 8))
(declare-fun x55 () (_ BitVec 8))
(declare-fun x57 () (_ BitVec 8))
(declare-fun x58 () (_ BitVec 8))
(declare-fun x60 () (_ BitVec 8))
(declare-fun x62 () (_ BitVec 8))
(declare-fun x63 () (_ BitVec 8))
(declare-fun x66 () (_ BitVec 8))
(declare-fun x68 () (_ BitVec 8))
(declare-fun x71 () (_ BitVec 8))
(declare-fun x74 () (_ BitVec 8))
(declare-fun x75 () (_ BitVec 8))
(declare-fun x76 () (_ BitVec 8))
(declare-fun x77 () (_ BitVec 8))
(declare-fun x80 () (_ BitVec 8))
(declare-fun x82 () (_ BitVec 8))
(declare-fun x83 () (_ BitVec 8))
(declare-fun x87 () (_ BitVec 8))
(declare-fun x88 () (_ BitVec 8))
(assert (bvult x00 (_ bv9 8)))
(assert (bvult x02 (_ bv9 8)))
(assert (bvult x03 (_ bv9 8)))
(assert (bvult x06 (_ bv9 8)))
(assert (bvult x07 (_ bv9 8)))
(assert (bvult x13 (_ bv9 8)))
(assert (bvult x14 (_ bv9 8)))
(assert (bvult x15 (_ bv9 8)))
(assert (bvult x16 (_ bv9 8)))
(assert (bvult x18 (_ bv9 8)))
(assert (bvult x21 (_ bv9 8)))
(assert (bvult x22 (_ bv9 8)))
(assert (bvult x24 (_ bv9 8)))
(assert (bvult x25 (_ bv9 8)))
(assert (bvult x27 (_ bv9 8)))
(assert (bvult x30 (_ bv9 8)))
(assert (bvult x31 (_ bv9 8)))
(assert (bvult x35 (_ bv9 8)))
(assert (bvult x36 (_ bv9 8)))
(assert (bvult x40 (_ bv9 8)))
(assert (bvult x41 (_ bv9 8)))
(assert (bvult x42 (_ bv9 8)))
(assert (bvult x43 (_ bv9 8)))
(assert (bvult x44 (_ bv9 8)))
(assert (bvult x46 (_ bv9 8)))
(assert (bvult x48 (_ bv9 8)))
(assert (bvult x51 (_ bv9 8)))
(assert (bvult x54 (_ bv9 8)))
(assert (bvult x55 (_ bv9 8)))
(assert (bvult x57 (_ bv9 8)))
(assert (bvult x58 (_ bv9 8)))
(assert (bvult x60 (_ bv9 8)))
(assert (bvult x62 (_ bv9 8)))
(assert (bvult x63 (_ bv9 8)))
(assert (bvult x66 (_ bv9 8)))
(assert (bvult x68 (_ bv9 8)))
(assert (bvult x71 (_ bv9 8)))
(assert (bvult x74 (_ bv9 8)))
(assert (bvult x75 (_ bv9 8)))
(assert (bvult x76 (_ bv9 8)))
(assert (bvult x77 (_ bv9 8)))
(assert (bvult x80 (_ bv9 8)))
(assert (bvult x82 (_ bv9 8)))
(assert (bvult x83 (_ bv9 8)))
(assert (bvult x87 (_ bv9 8)))
(assert (bvult x88 (_ bv9 8)))
(assert (not (= x00 (_ bv2 8))))
(assert (not (= x00 x02)))
(assert (not (= x00 x03)))
(assert (not (= x00 (_ bv7 8))))
(assert (not (= x00 (_ bv3 8))))
(assert (not (= x00 x06)))
(assert (not (= x00 x07)))
(assert (not (= x00 (_ bv6 8))))
(assert (not (= (_ bv2 8) x02)))
(assert (not (= (_ bv2 8) x03)))
(assert (not (= (_ bv2 8) (_ bv7 8))))
(assert (not (= (_ bv2 8) (_ bv3 8))))
(assert (not (= (_ bv2 8) x06)))
(assert (not (= (_ bv2 8) x07)))
(assert (not (= (_ bv2 8) (_ bv6 8))))
(assert (not (= x02 x03)))
(assert (not (= x02 (_ bv7 8))))
(assert (not (= x02 (_ bv3 8))))
(assert (not (= x02 x06)))
(assert (not (= x02 x07)))
(assert (not (= x02 (_ bv6 8))))
(assert (not (= x03 (_ bv7 8))))
(assert (not (= x03 (_ bv3 8))))
(assert (not (= x03 x06)))
(assert (not (= x03 x07)))
(assert (not (= x03 (_ bv6 8))))
(assert (not (= (_ bv7 8) (_ bv3 8))))
(assert (not (= (_ bv7 8) x06)))
(assert (not (= (_ bv7 8) x07)))
(assert (not (= (_ bv7 8) (_ bv6 8))))
(assert (not (= (_ bv3 8) x06)))
(assert (not (= (_ bv3 8) x07)))
(assert (not (= (_ bv3 8) (_ bv6 8))))
(assert (not (= x06 x07)))
(assert (not (= x06 (_ bv6 8))))
(assert (not (= x07 (_ bv6 8))))
(assert (not (= (_ bv8 8) (_ bv5 8))))
(assert (not (= (_ bv8 8) (_ bv7 8))))
(assert (not (= (_ bv8 8) x13)))
(assert (not (= (_ bv8 8) x14)))
(assert (not (= (_ bv8 8) x15)))
(assert (not (= (_ bv8 8) x16)))
(assert (not (= (_ bv8 8) (_ bv1 8))))
(assert (not (= (_ bv8 8) x18)))
(assert (not (= (_ bv5 8) (_ bv7 8))))
(assert (not (= (_ bv5 8) x13)))
(assert (not (= (_ bv5 8) x14)))
(assert (not (= (_ bv5 8) x15)))
(assert (not (= (_ bv5 8) x16)))
(assert (not (= (_ bv5 8) (_ bv1 8))))
(assert (not (= (_ bv5 8) x18)))
(assert (not (= (_ bv7 8) x13)))
(assert (not (= (_ bv7 8) x14)))
(assert (not (= (_ bv7 8) x15)))
(assert (not (= (_ bv7 8) x16)))
(assert (not (= (_ bv7 8) (_ bv1 8))))
(assert (not (= (_ bv7 8) x18)))
(assert (not (= x13 x14)))
(assert (not (= x13 x15)))
(assert (not (= x13 x16)))
(assert (not (= x13 (_ bv1 8))))
(assert (not (= x13 x18)))
(assert (not (= x14 x15)))
(assert (not (= x14 x16)))
(assert (not (= x14 (_ bv1 8))))
(assert (not (= x14 x18)))
(assert (not (= x15 x16)))
(assert (not (= x15 (_ bv1 8))))
(assert (not (= x15 x18)))
(assert (not (= x16 (_ bv1 8))))
(assert (not (= x16 x18)))
(assert (not (= (_ bv1 8) x18)))
(assert (not (= (_ bv1 8) x21)))
(assert (not (= (_ bv1 8) x22)))
(assert (not (= (_ bv1 8) (_ bv5 8))))
(assert (not (= (_ bv1 8) x24)))
(assert (not (= (_ bv1 8) x25)))
(assert (not (= (_ bv1 8) (_ bv2 8))))
(assert (not (= (_ bv1 8) x27)))
(assert (not (= (_ bv1 8) (_ bv9 8))))
(assert (not (= x21 x22)))
(assert (not (= x21 (_ bv5 8))))
(assert (not (= x21 x24)))
(assert (not (= x21 x25)))
(assert (not (= x21 (_ bv2 8))))
(assert (not (= x21 x27)))
(assert (not (= x21 (_ bv9 8))))
(assert (not (= x22 (_ bv5 8))))
(assert (not (= x22 x24)))
(assert (not (= x22 x25)))
(assert (not (= x22 (_ bv2 8))))
(assert (not (= x22 x27)))
(assert (not (= x22 (_ bv9 8))))
(assert (not (= (_ bv5 8) x24)))
(assert (not (= (_ bv5 8) x25)))
(assert (not (= (_ bv5 8) (_ bv2 8))))
(assert (not (= (_ bv5 8) x27)))
(assert (not (= (_ bv5 8) (_ bv9 8))))
(assert (not (= x24 x25)))
(assert (not (= x24 (_ bv2 8))))
(assert (not (= x24 x27)))
(assert (not (= x24 (_ bv9 8))))
(assert (not (= x25 (_ bv2 8))))
(assert (not (= x25 x27)))
(assert (not (= x25 (_ bv9 8))))
(assert (not (= (_ bv2 8) x27)))
(assert (not (= (_ bv2 8) (_ bv9 8))))
(assert (not (= x27 (_ bv9 8))))
(assert (not (= x30 x31)))
(assert (not (= x30 (_ bv1 8))))
(assert (not (= x30 (_ bv6 8))))
(assert (not (= x30 (_ bv9 8))))
(assert (not (= x30 x35)))
(assert (not (= x30 x36)))
(assert (not (= x30 (_ bv3 8))))
(assert (not (= x30 (_ bv5 8))))
(assert (not (= x31 (_ bv1 8))))
(assert (not (= x31 (_ bv6 8))))
(assert (not (= x31 (_ bv9 8))))
(assert (not (= x31 x35)))
(assert (not (= x31 x36)))
(assert (not (= x31 (_ bv3 8))))
(assert (not (= x31 (_ bv5 8))))
(assert (not (= (_ bv1 8) (_ bv6 8))))
(assert (not (= (_ bv1 8) (_ bv9 8))))
(assert (not (= (_ bv1 8) x35)))
(assert (not (= (_ bv1 8) x36)))
(assert (not (= (_ bv1 8) (_ bv3 8))))
(assert (not (= (_ bv1 8) (_ bv5 8))))
(assert (not (= (_ bv6 8) (_ bv9 8))))
(assert (not (= (_ bv6 8) x35)))
(assert (not (= (_ bv6 8) x36)))
(assert (not (= (_ bv6 8) (_ bv3 8))))
(assert (not (= (_ bv6 8) (_ bv5 8))))
(assert (not (= (_ bv9 8) x35)))
(assert (not (= (_ bv9 8) x36)))
(assert (not (= (_ bv9 8) (_ bv3 8))))
(assert (not (= (_ bv9 8) (_ bv5 8))))
(assert (not (= x35 x36)))
(assert (not (= x35 (_ bv3 8))))
(assert (not (= x35 (_ bv5 8))))
(assert (not (= x36 (_ bv3 8))))
(assert (not (= x36 (_ bv5 8))))
(assert (not (= (_ bv3 8) (_ bv5 8))))
(assert (not (= x40 x41)))
(assert (not (= x40 x42)))
(assert (not (= x40 x43)))
(assert (not (= x40 x44)))
(assert (not (= x40 (_ bv2 8))))
(assert (not (= x40 x46)))
(assert (not (= x40 (_ bv4 8))))
(assert (not (= x40 x48)))
(assert (not (= x41 x42)))
(assert (not (= x41 x43)))
(assert (not (= x41 x44)))
(assert (not (= x41 (_ bv2 8))))
(assert (not (= x41 x46)))
(assert (not (= x41 (_ bv4 8))))
(assert (not (= x41 x48)))
(assert (not (= x42 x43)))
(assert (not (= x42 x44)))
(assert (not (= x42 (_ bv2 8))))
(assert (not (= x42 x46)))
(assert (not (= x42 (_ bv4 8))))
(assert (not (= x42 x48)))
(assert (not (= x43 x44)))
(assert (not (= x43 (_ bv2 8))))
(assert (not (= x43 x46)))
(assert (not (= x43 (_ bv4 8))))
(assert (not (= x43 x48)))
(assert (not (= x44 (_ bv2 8))))
(assert (not (= x44 x46)))
(assert (not (= x44 (_ bv4 8))))
(assert (not (= x44 x48)))
(assert (not (= (_ bv2 8) x46)))
(assert (not (= (_ bv2 8) (_ bv4 8))))
(assert (not (= (_ bv2 8) x48)))
(assert (not (= x46 (_ bv4 8))))
(assert (not (= x46 x48)))
(assert (not (= (_ bv4 8) x48)))
(assert (not (= (_ bv3 8) x51)))
(assert (not (= (_ bv3 8) (_ bv6 8))))
(assert (not (= (_ bv3 8) (_ bv4 8))))
(assert (not (= (_ bv3 8) x54)))
(assert (not (= (_ bv3 8) x55)))
(assert (not (= (_ bv3 8) (_ bv8 8))))
(assert (not (= (_ bv3 8) x57)))
(assert (not (= (_ bv3 8) x58)))
(assert (not (= x51 (_ bv6 8))))
(assert (not (= x51 (_ bv4 8))))
(assert (not (= x51 x54)))
(assert (not (= x51 x55)))
(assert (not (= x51 (_ bv8 8))))
(assert (not (= x51 x57)))
(assert (not (= x51 x58)))
(assert (not (= (_ bv6 8) (_ bv4 8))))
(assert (not (= (_ bv6 8) x54)))
(assert (not (= (_ bv6 8) x55)))
(assert (not (= (_ bv6 8) (_ bv8 8))))
(assert (not (= (_ bv6 8) x57)))
(assert (not (= (_ bv6 8) x58)))
(assert (not (= (_ bv4 8) x54)))
(assert (not (= (_ bv4 8) x55)))
(assert (not (= (_ bv4 8) (_ bv8 8))))
(assert (not (= (_ bv4 8) x57)))
(assert (not (= (_ bv4 8) x58)))
(assert (not (= x54 x55)))
(assert (not (= x54 (_ bv8 8))))
(assert (not (= x54 x57)))
(assert (not (= x54 x58)))
(assert (not (= x55 (_ bv8 8))))
(assert (not (= x55 x57)))
(assert (not (= x55 x58)))
(assert (not (= (_ bv8 8) x57)))
(assert (not (= (_ bv8 8) x58)))
(assert (not (= x57 x58)))
(assert (not (= x60 (_ bv3 8))))
(assert (not (= x60 x62)))
(assert (not (= x60 x63)))
(assert (not (= x60 (_ bv4 8))))
(assert (not (= x60 (_ bv7 8))))
(assert (not (= x60 x66)))
(assert (not (= x60 (_ bv5 8))))
(assert (not (= x60 x68)))
(assert (not (= (_ bv3 8) x62)))
(assert (not (= (_ bv3 8) x63)))
(assert (not (= (_ bv3 8) (_ bv4 8))))
(assert (not (= (_ bv3 8) (_ bv7 8))))
(assert (not (= (_ bv3 8) x66)))
(assert (not (= (_ bv3 8) (_ bv5 8))))
(assert (not (= (_ bv3 8) x68)))
(assert (not (= x62 x63)))
(assert (not (= x62 (_ bv4 8))))
(assert (not (= x62 (_ bv7 8))))
(assert (not (= x62 x66)))
(assert (not (= x62 (_ bv5 8))))
(assert (not (= x62 x68)))
(assert (not (= x63 (_ bv4 8))))
(assert (not (= x63 (_ bv7 8))))
(assert (not (= x63 x66)))
(assert (not (= x63 (_ bv5 8))))
(assert (not (= x63 x68)))
(assert (not (= (_ bv4 8) (_ bv7 8))))
(assert (not (= (_ bv4 8) x66)))
(assert (not (= (_ bv4 8) (_ bv5 8))))
(assert (not (= (_ bv4 8) x68)))
(assert (not (= (_ bv7 8) x66)))
(assert (not (= (_ bv7 8) (_ bv5 8))))
(assert (not (= (_ bv7 8) x68)))
(assert (not (= x66 (_ bv5 8))))
(assert (not (= x66 x68)))
(assert (not (= (_ bv5 8) x68)))
(assert (not (= (_ bv9 8) x71)))
(assert (not (= (_ bv9 8) (_ bv4 8))))
(assert (not (= (_ bv9 8) (_ bv8 8))))
(assert (not (= (_ bv9 8) x74)))
(assert (not (= (_ bv9 8) x75)))
(assert (not (= (_ bv9 8) x76)))
(assert (not (= (_ bv9 8) x77)))
(assert (not (= (_ bv9 8) (_ bv7 8))))
(assert (not (= x71 (_ bv4 8))))
(assert (not (= x71 (_ bv8 8))))
(assert (not (= x71 x74)))
(assert (not (= x71 x75)))
(assert (not (= x71 x76)))
(assert (not (= x71 x77)))
(assert (not (= x71 (_ bv7 8))))
(assert (not (= (_ bv4 8) (_ bv8 8))))
(assert (not (= (_ bv4 8) x74)))
(assert (not (= (_ bv4 8) x75)))
(assert (not (= (_ bv4 8) x76)))
(assert (not (= (_ bv4 8) x77)))
(assert (not (= (_ bv4 8) (_ bv7 8))))
(assert (not (= (_ bv8 8) x74)))
(assert (not (= (_ bv8 8) x75)))
(assert (not (= (_ bv8 8) x76)))
(assert (not (= (_ bv8 8) x77)))
(assert (not (= (_ bv8 8) (_ bv7 8))))
(assert (not (= x74 x75)))
(assert (not (= x74 x76)))
(assert (not (= x74 x77)))
(assert (not (= x74 (_ bv7 8))))
(assert (not (= x75 x76)))
(assert (not (= x75 x77)))
(assert (not (= x75 (_ bv7 8))))
(assert (not (= x76 x77)))
(assert (not (= x76 (_ bv7 8))))
(assert (not (= x77 (_ bv7 8))))
(assert (not (= x80 (_ bv8 8))))
(assert (not (= x80 x82)))
(assert (not (= x80 x83)))
(assert (not (= x80 (_ bv1 8))))
(assert (not (= x80 (_ bv6 8))))
(assert (not (= x80 (_ bv9 8))))
(assert (not (= x80 x87)))
(assert (not (= x80 x88)))
(assert (not (= (_ bv8 8) x82)))
(assert (not (= (_ bv8 8) x83)))
(assert (not (= (_ bv8 8) (_ bv1 8))))
(assert (not (= (_ bv8 8) (_ bv6 8))))
(assert (not (= (_ bv8 8) (_ bv9 8))))
(assert (not (= (_ bv8 8) x87)))
(assert (not (= (_ bv8 8) x88)))
(assert (not (= x82 x83)))
(assert (not (= x82 (_ bv1 8))))
(assert (not (= x82 (_ bv6 8))))
(assert (not (= x82 (_ bv9 8))))
(assert (not (= x82 x87)))
(assert (not (= x82 x88)))
(assert (not (= x83 (_ bv1 8))))
(assert (not (= x83 (_ bv6 8))))
(assert (not (= x83 (_ bv9 8))))
(assert (not (= x83 x87)))
(assert (not (= x83 x88)))
(assert (not (= (_ bv1 8) (_ bv6 8))))
(assert (not (= (_ bv1 8) (_ bv9 8))))
(assert (not (= (_ bv1 8) x87)))
(assert (not (= (_ bv1 8) x88)))
(assert (not (= (_ bv6 8) (_ bv9 8))))
(assert (not (= (_ bv6 8) x87)))
(assert (not (= (_ bv6 8) x88)))
(assert (not (= (_ bv9 8) x87)))
(assert (not (= (_ bv9 8) x88)))
(assert (not (= x87 x88)))
(assert (not (= x00 (_ bv8 8))))
(assert (not (= x00 (_ bv1 8))))
(assert (not (= x00 x30)))
(assert (not (= x00 x40)))
(assert (not (= x00 (_ bv3 8))))
(assert (not (= x00 x60)))
(assert (not (= x00 (_ bv9 8))))
(assert (not (= x00 x80)))
(assert (not (= (_ bv8 8) (_ bv1 8))))
(assert (not (= (_ bv8 8) x30)))
(assert (not (= (_ bv8 8) x40)))
(assert (not (= (_ bv8 8) (_ bv3 8))))
(assert (not (= (_ bv8 8) x60)))
(assert (not (= (_ bv8 8) (_ bv9 8))))
(assert (not (= (_ bv8 8) x80)))
(assert (not (= (_ bv1 8) x30)))
(assert (not (= (_ bv1 8) x40)))
(assert (not (= (_ bv1 8) (_ bv3 8))))
(assert (not (= (_ bv1 8) x60)))
(assert (not (= (_ bv1 8) (_ bv9 8))))
(assert (not (= (_ bv1 8) x80)))
(assert (not (= x30 x40)))
(assert (not (= x30 (_ bv3 8))))
(assert (not (= x30 x60)))
(assert (not (= x30 (_ bv9 8))))
(assert (not (= x30 x80)))
(assert (not (= x40 (_ bv3 8))))
(assert (not (= x40 x60)))
(assert (not (= x40 (_ bv9 8))))
(assert (not (= x40 x80)))
(assert (not (= (_ bv3 8) x60)))
(assert (not (= (_ bv3 8) (_ bv9 8))))
(assert (not (= (_ bv3 8) x80)))
(assert (not (= x60 (_ bv9 8))))
(assert (not (= x60 x80)))
(assert (not (= (_ bv9 8) x80)))
(assert (not (= (_ bv2 8) (_ bv5 8))))
(assert (not (= (_ bv2 8) x21)))
(assert (not (= (_ bv2 8) x31)))
(assert (not (= (_ bv2 8) x41)))
(assert (not (= (_ bv2 8) x51)))
(assert (not (= (_ bv2 8) (_ bv3 8))))
(assert (not (= (_ bv2 8) x71)))
(assert (not (= (_ bv2 8) (_ bv8 8))))
(assert (not (= (_ bv5 8) x21)))
(assert (not (= (_ bv5 8) x31)))
(assert (not (= (_ bv5 8) x41)))
(assert (not (= (_ bv5 8) x51)))
(assert (not (= (_ bv5 8) (_ bv3 8))))
(assert (not (= (_ bv5 8) x71)))
(assert (not (= (_ bv5 8) (_ bv8 8))))
(assert (not (= x21 x31)))
(assert (not (= x21 x41)))
(assert (not (= x21 x51)))
(assert (not (= x21 (_ bv3 8))))
(assert (not (= x21 x71)))
(assert (not (= x21 (_ bv8 8))))
(assert (not (= x31 x41)))
(assert (not (= x31 x51)))
(assert (not (= x31 (_ bv3 8))))
(assert (not (= x31 x71)))
(assert (not (= x31 (_ bv8 8))))
(assert (not (= x41 x51)))
(assert (not (= x41 (_ bv3 8))))
(assert (not (= x41 x71)))
(assert (not (= x41 (_ bv8 8))))
(assert (not (= x51 (_ bv3 8))))
(assert (not (= x51 x71)))
(assert (not (= x51 (_ bv8 8))))
(assert (not (= (_ bv3 8) x71)))
(assert (not (= (_ bv3 8) (_ bv8 8))))
(assert (not (= x71 (_ bv8 8))))
(assert (not (= x02 (_ bv7 8))))
(assert (not (= x02 x22)))
(assert (not (= x02 (_ bv1 8))))
(assert (not (= x02 x42)))
(assert (not (= x02 (_ bv6 8))))
(assert (not (= x02 x62)))
(assert (not (= x02 (_ bv4 8))))
(assert (not (= x02 x82)))
(assert (not (= (_ bv7 8) x22)))
(assert (not (= (_ bv7 8) (_ bv1 8))))
(assert (not (= (_ bv7 8) x42)))
(assert (not (= (_ bv7 8) (_ bv6 8))))
(assert (not (= (_ bv7 8) x62)))
(assert (not (= (_ bv7 8) (_ bv4 8))))
(assert (not (= (_ bv7 8) x82)))
(assert (not (= x22 (_ bv1 8))))
(assert (not (= x22 x42)))
(assert (not (= x22 (_ bv6 8))))
(assert (not (= x22 x62)))
(assert (not (= x22 (_ bv4 8))))
(assert (not (= x22 x82)))
(assert (not (= (_ bv1 8) x42)))
(assert (not (= (_ bv1 8) (_ bv6 8))))
(assert (not (= (_ bv1 8) x62)))
(assert (not (= (_ bv1 8) (_ bv4 8))))
(assert (not (= (_ bv1 8) x82)))
(assert (not (= x42 (_ bv6 8))))
(assert (not (= x42 x62)))
(assert (not (= x42 (_ bv4 8))))
(assert (not (= x42 x82)))
(assert (not (= (_ bv6 8) x62)))
(assert (not (= (_ bv6 8) (_ bv4 8))))
(assert (not (= (_ bv6 8) x82)))
(assert (not (= x62 (_ bv4 8))))
(assert (not (= x62 x82)))
(assert (not (= (_ bv4 8) x82)))
(assert (not (= x03 x13)))
(assert (not (= x03 (_ bv5 8))))
(assert (not (= x03 (_ bv6 8))))
(assert (not (= x03 x43)))
(assert (not (= x03 (_ bv4 8))))
(assert (not (= x03 x63)))
(assert (not (= x03 (_ bv8 8))))
(assert (not (= x03 x83)))
(assert (not (= x13 (_ bv5 8))))
(assert (not (= x13 (_ bv6 8))))
(assert (not (= x13 x43)))
(assert (not (= x13 (_ bv4 8))))
(assert (not (= x13 x63)))
(assert (not (= x13 (_ bv8 8))))
(assert (not (= x13 x83)))
(assert (not (= (_ bv5 8) (_ bv6 8))))
(assert (not (= (_ bv5 8) x43)))
(assert (not (= (_ bv5 8) (_ bv4 8))))
(assert (not (= (_ bv5 8) x63)))
(assert (not (= (_ bv5 8) (_ bv8 8))))
(assert (not (= (_ bv5 8) x83)))
(assert (not (= (_ bv6 8) x43)))
(assert (not (= (_ bv6 8) (_ bv4 8))))
(assert (not (= (_ bv6 8) x63)))
(assert (not (= (_ bv6 8) (_ bv8 8))))
(assert (not (= (_ bv6 8) x83)))
(assert (not (= x43 (_ bv4 8))))
(assert (not (= x43 x63)))
(assert (not (= x43 (_ bv8 8))))
(assert (not (= x43 x83)))
(assert (not (= (_ bv4 8) x63)))
(assert (not (= (_ bv4 8) (_ bv8 8))))
(assert (not (= (_ bv4 8) x83)))
(assert (not (= x63 (_ bv8 8))))
(assert (not (= x63 x83)))
(assert (not (= (_ bv8 8) x83)))
(assert (not (= (_ bv7 8) x14)))
(assert (not (= (_ bv7 8) x24)))
(assert (not (= (_ bv7 8) (_ bv9 8))))
(assert (not (= (_ bv7 8) x44)))
(assert (not (= (_ bv7 8) x54)))
(assert (not (= (_ bv7 8) (_ bv4 8))))
(assert (not (= (_ bv7 8) x74)))
(assert (not (= (_ bv7 8) (_ bv1 8))))
(assert (not (= x14 x24)))
(assert (not (= x14 (_ bv9 8))))
(assert (not (= x14 x44)))
(assert (not (= x14 x54)))
(assert (not (= x14 (_ bv4 8))))
(assert (not (= x14 x74)))
(assert (not (= x14 (_ bv1 8))))
(assert (not (= x24 (_ bv9 8))))
(assert (not (= x24 x44)))
(assert (not (= x24 x54)))
(assert (not (= x24 (_ bv4 8))))
(assert (not (= x24 x74)))
(assert (not (= x24 (_ bv1 8))))
(assert (not (= (_ bv9 8) x44)))
(assert (not (= (_ bv9 8) x54)))
(assert (not (= (_ bv9 8) (_ bv4 8))))
(assert (not (= (_ bv9 8) x74)))
(assert (not (= (_ bv9 8) (_ bv1 8))))
(assert (not (= x44 x54)))
(assert (not (= x44 (_ bv4 8))))
(assert (not (= x44 x74)))
(assert (not (= x44 (_ bv1 8))))
(assert (not (= x54 (_ bv4 8))))
(assert (not (= x54 x74)))
(assert (not (= x54 (_ bv1 8))))
(assert (not (= (_ bv4 8) x74)))
(assert (not (= (_ bv4 8) (_ bv1 8))))
(assert (not (= x74 (_ bv1 8))))
(assert (not (= (_ bv3 8) x15)))
(assert (not (= (_ bv3 8) x25)))
(assert (not (= (_ bv3 8) x35)))
(assert (not (= (_ bv3 8) (_ bv2 8))))
(assert (not (= (_ bv3 8) x55)))
(assert (not (= (_ bv3 8) (_ bv7 8))))
(assert (not (= (_ bv3 8) x75)))
(assert (not (= (_ bv3 8) (_ bv6 8))))
(assert (not (= x15 x25)))
(assert (not (= x15 x35)))
(assert (not (= x15 (_ bv2 8))))
(assert (not (= x15 x55)))
(assert (not (= x15 (_ bv7 8))))
(assert (not (= x15 x75)))
(assert (not (= x15 (_ bv6 8))))
(assert (not (= x25 x35)))
(assert (not (= x25 (_ bv2 8))))
(assert (not (= x25 x55)))
(assert (not (= x25 (_ bv7 8))))
(assert (not (= x25 x75)))
(assert (not (= x25 (_ bv6 8))))
(assert (not (= x35 (_ bv2 8))))
(assert (not (= x35 x55)))
(assert (not (= x35 (_ bv7 8))))
(assert (not (= x35 x75)))
(assert (not (= x35 (_ bv6 8))))
(assert (not (= (_ bv2 8) x55)))
(assert (not (= (_ bv2 8) (_ bv7 8))))
(assert (not (= (_ bv2 8) x75)))
(assert (not (= (_ bv2 8) (_ bv6 8))))
(assert (not (= x55 (_ bv7 8))))
(assert (not (= x55 x75)))
(assert (not (= x55 (_ bv6 8))))
(assert (not (= (_ bv7 8) x75)))
(assert (not (= (_ bv7 8) (_ bv6 8))))
(assert (not (= x75 (_ bv6 8))))
(assert (not (= x06 x16)))
(assert (not (= x06 (_ bv2 8))))
(assert (not (= x06 x36)))
(assert (not (= x06 x46)))
(assert (not (= x06 (_ bv8 8))))
(assert (not (= x06 x66)))
(assert (not (= x06 x76)))
(assert (not (= x06 (_ bv9 8))))
(assert (not (= x16 (_ bv2 8))))
(assert (not (= x16 x36)))
(assert (not (= x16 x46)))
(assert (not (= x16 (_ bv8 8))))
(assert (not (= x16 x66)))
(assert (not (= x16 x76)))
(assert (not (= x16 (_ bv9 8))))
(assert (not (= (_ bv2 8) x36)))
(assert (not (= (_ bv2 8) x46)))
(assert (not (= (_ bv2 8) (_ bv8 8))))
(assert (not (= (_ bv2 8) x66)))
(assert (not (= (_ bv2 8) x76)))
(assert (not (= (_ bv2 8) (_ bv9 8))))
(assert (not (= x36 x46)))
(assert (not (= x36 (_ bv8 8))))
(assert (not (= x36 x66)))
(assert (not (= x36 x76)))
(assert (not (= x36 (_ bv9 8))))
(assert (not (= x46 (_ bv8 8))))
(assert (not (= x46 x66)))
(assert (not (= x46 x76)))
(assert (not (= x46 (_ bv9 8))))
(assert (not (= (_ bv8 8) x66)))
(assert (not (= (_ bv8 8) x76)))
(assert (not (= (_ bv8 8) (_ bv9 8))))
(assert (not (= x66 x76)))
(assert (not (= x66 (_ bv9 8))))
(assert (not (= x76 (_ bv9 8))))
(assert (not (= x07 (_ bv1 8))))
(assert (not (= x07 x27)))
(assert (not (= x07 (_ bv3 8))))
(assert (not (= x07 (_ bv4 8))))
(assert (not (= x07 x57)))
(assert (not (= x07 (_ bv5 8))))
(assert (not (= x07 x77)))
(assert (not (= x07 x87)))
(assert (not (= (_ bv1 8) x27)))
(assert (not (= (_ bv1 8) (_ bv3 8))))
(assert (not (= (_ bv1 8) (_ bv4 8))))
(assert (not (= (_ bv1 8) x57)))
(assert (not (= (_ bv1 8) (_ bv5 8))))
(assert (not (= (_ bv1 8) x77)))
(assert (not (= (_ bv1 8) x87)))
(assert (not (= x27 (_ bv3 8))))
(assert (not (= x27 (_ bv4 8))))
(assert (not (= x27 x57)))
(assert (not (= x27 (_ bv5 8))))
(assert (not (= x27 x77)))
(assert (not (= x27 x87)))
(assert (not (= (_ bv3 8) (_ bv4 8))))
(assert (not (= (_ bv3 8) x57)))
(assert (not (= (_ bv3 8) (_ bv5 8))))
(assert (not (= (_ bv3 8) x77)))
(assert (not (= (_ bv3 8) x87)))
(assert (not (= (_ bv4 8) x57)))
(assert (not (= (_ bv4 8) (_ bv5 8))))
(assert (not (= (_ bv4 8) x77)))
(assert (not (= (_ bv4 8) x87)))
(assert (not (= x57 (_ bv5 8))))
(assert (not (= x57 x77)))
(assert (not (= x57 x87)))
(assert (not (= (_ bv5 8) x77)))
(assert (not (= (_ bv5 8) x87)))
(assert (not (= x77 x87)))
(assert (not (= (_ bv6 8) x18)))
(assert (not (= (_ bv6 8) (_ bv9 8))))
(assert (not (= (_ bv6 8) (_ bv5 8))))
(assert (not (= (_ bv6 8) x48)))
(assert (not (= (_ bv6 8) x58)))
(assert (not (= (_ bv6 8) x68)))
(assert (not (= (_ bv6 8) (_ bv7 8))))
(assert (not (= (_ bv6 8) x88)))
(assert (not (= x18 (_ bv9 8))))
(assert (not (= x18 (_ bv5 8))))
(assert (not (= x18 x48)))
(assert (not (= x18 x58)))
(assert (not (= x18 x68)))
(assert (not (= x18 (_ bv7 8))))
(assert (not (= x18 x88)))
(assert (not (= (_ bv9 8) (_ bv5 8))))
(assert (not (= (_ bv9 8) x48)))
(assert (not (= (_ bv9 8) x58)))
(assert (not (= (_ bv9 8) x68)))
(assert (not (= (_ bv9 8) (_ bv7 8))))
(assert (not (= (_ bv9 8) x88)))
(assert (not (= (_ bv5 8) x48)))
(assert (not (= (_ bv5 8) x58)))
(assert (not (= (_ bv5 8) x68)))
(assert (not (= (_ bv5 8) (_ bv7 8))))
(assert (not (= (_ bv5 8) x88)))
(assert (not (= x48 x58)))
(assert (not (= x48 x68)))
(assert (not (= x48 (_ bv7 8))))
(assert (not (= x48 x88)))
(assert (not (= x58 x68)))
(assert (not (= x58 (_ bv7 8))))
(assert (not (= x58 x88)))
(assert (not (= x68 (_ bv7 8))))
(assert (not (= x68 x88)))
(assert (not (= (_ bv7 8) x88)))
(assert (not (= x00 (_ bv2 8))))
(assert (not (= x00 x02)))
(assert (not (= x00 (_ bv8 8))))
(assert (not (= x00 (_ bv5 8))))
(assert (not (= x00 (_ bv7 8))))
(assert (not (= x00 (_ bv1 8))))
(assert (not (= x00 x21)))
(assert (not (= x00 x22)))
(assert (not (= (_ bv2 8) x02)))
(assert (not (= (_ bv2 8) (_ bv8 8))))
(assert (not (= (_ bv2 8) (_ bv5 8))))
(assert (not (= (_ bv2 8) (_ bv7 8))))
(assert (not (= (_ bv2 8) (_ bv1 8))))
(assert (not (= (_ bv2 8) x21)))
(assert (not (= (_ bv2 8) x22)))
(assert (not (= x02 (_ bv8 8))))
(assert (not (= x02 (_ bv5 8))))
(assert (not (= x02 (_ bv7 8))))
(assert (not (= x02 (_ bv1 8))))
(assert (not (= x02 x21)))
(assert (not (= x02 x22)))
(assert (not (= (_ bv8 8) (_ bv5 8))))
(assert (not (= (_ bv8 8) (_ bv7 8))))
(assert (not (= (_ bv8 8) (_ bv1 8))))
(assert (not (= (_ bv8 8) x21)))
(assert (not (= (_ bv8 8) x22)))
(assert (not (= (_ bv5 8) (_ bv7 8))))
(assert (not (= (_ bv5 8) (_ bv1 8))))
(assert (not (= (_ bv5 8) x21)))
(assert (not (= (_ bv5 8) x22)))
(assert (not (= (_ bv7 8) (_ bv1 8))))
(assert (not (= (_ bv7 8) x21)))
(assert (not (= (_ bv7 8) x22)))
(assert (not (= (_ bv1 8) x21)))
(assert (not (= (_ bv1 8) x22)))
(assert (not (= x21 x22)))
(assert (not (= x03 (_ bv7 8))))
(assert (not (= x03 (_ bv3 8))))
(assert (not (= x03 x13)))
(assert (not (= x03 x14)))
(assert (not (= x03 x15)))
(assert (not (= x03 (_ bv5 8))))
(assert (not (= x03 x24)))
(assert (not (= x03 x25)))
(assert (not (= (_ bv7 8) (_ bv3 8))))
(assert (not (= (_ bv7 8) x13)))
(assert (not (= (_ bv7 8) x14)))
(assert (not (= (_ bv7 8) x15)))
(assert (not (= (_ bv7 8) (_ bv5 8))))
(assert (not (= (_ bv7 8) x24)))
(assert (not (= (_ bv7 8) x25)))
(assert (not (= (_ bv3 8) x13)))
(assert (not (= (_ bv3 8) x14)))
(assert (not (= (_ bv3 8) x15)))
(assert (not (= (_ bv3 8) (_ bv5 8))))
(assert (not (= (_ bv3 8) x24)))
(assert (not (= (_ bv3 8) x25)))
(assert (not (= x13 x14)))
(assert (not (= x13 x15)))
(assert (not (= x13 (_ bv5 8))))
(assert (not (= x13 x24)))
(assert (not (= x13 x25)))
(assert (not (= x14 x15)))
(assert (not (= x14 (_ bv5 8))))
(assert (not (= x14 x24)))
(assert (not (= x14 x25)))
(assert (not (= x15 (_ bv5 8))))
(assert (not (= x15 x24)))
(assert (not (= x15 x25)))
(assert (not (= (_ bv5 8) x24)))
(assert (not (= (_ bv5 8) x25)))
(assert (not (= x24 x25)))
(assert (not (= x06 x07)))
(assert (not (= x06 (_ bv6 8))))
(assert (not (= x06 x16)))
(assert (not (= x06 (_ bv1 8))))
(assert (not (= x06 x18)))
(assert (not (= x06 (_ bv2 8))))
(assert (not (= x06 x27)))
(assert (not (= x06 (_ bv9 8))))
(assert (not (= x07 (_ bv6 8))))
(assert (not (= x07 x16)))
(assert (not (= x07 (_ bv1 8))))
(assert (not (= x07 x18)))
(assert (not (= x07 (_ bv2 8))))
(assert (not (= x07 x27)))
(assert (not (= x07 (_ bv9 8))))
(assert (not (= (_ bv6 8) x16)))
(assert (not (= (_ bv6 8) (_ bv1 8))))
(assert (not (= (_ bv6 8) x18)))
(assert (not (= (_ bv6 8) (_ bv2 8))))
(assert (not (= (_ bv6 8) x27)))
(assert (not (= (_ bv6 8) (_ bv9 8))))
(assert (not (= x16 (_ bv1 8))))
(assert (not (= x16 x18)))
(assert (not (= x16 (_ bv2 8))))
(assert (not (= x16 x27)))
(assert (not (= x16 (_ bv9 8))))
(assert (not (= (_ bv1 8) x18)))
(assert (not (= (_ bv1 8) (_ bv2 8))))
(assert (not (= (_ bv1 8) x27)))
(assert (not (= (_ bv1 8) (_ bv9 8))))
(assert (not (= x18 (_ bv2 8))))
(assert (not (= x18 x27)))
(assert (not (= x18 (_ bv9 8))))
(assert (not (= (_ bv2 8) x27)))
(assert (not (= (_ bv2 8) (_ bv9 8))))
(assert (not (= x27 (_ bv9 8))))
(assert (not (= x30 x31)))
(assert (not (= x30 (_ bv1 8))))
(assert (not (= x30 x40)))
(assert (not (= x30 x41)))
(assert (not (= x30 x42)))
(assert (not (= x30 (_ bv3 8))))
(assert (not (= x30 x51)))
(assert (not (= x30 (_ bv6 8))))
(assert (not (= x31 (_ bv1 8))))
(assert (not (= x31 x40)))
(assert (not (= x31 x41)))
(assert (not (= x31 x42)))
(assert (not (= x31 (_ bv3 8))))
(assert (not (= x31 x51)))
(assert (not (= x31 (_ bv6 8))))
(assert (not (= (_ bv1 8) x40)))
(assert (not (= (_ bv1 8) x41)))
(assert (not (= (_ bv1 8) x42)))
(assert (not (= (_ bv1 8) (_ bv3 8))))
(assert (not (= (_ bv1 8) x51)))
(assert (not (= (_ bv1 8) (_ bv6 8))))
(assert (not (= x40 x41)))
(assert (not (= x40 x42)))
(assert (not (= x40 (_ bv3 8))))
(assert (not (= x40 x51)))
(assert (not (= x40 (_ bv6 8))))
(assert (not (= x41 x42)))
(assert (not (= x41 (_ bv3 8))))
(assert (not (= x41 x51)))
(assert (not (= x41 (_ bv6 8))))
(assert (not (= x42 (_ bv3 8))))
(assert (not (= x42 x51)))
(assert (not (= x42 (_ bv6 8))))
(assert (not (= (_ bv3 8) x51)))
(assert (not (= (_ bv3 8) (_ bv6 8))))
(assert (not (= x51 (_ bv6 8))))
(assert (not (= (_ bv6 8) (_ bv9 8))))
(assert (not (= (_ bv6 8) x35)))
(assert (not (= (_ bv6 8) x43)))
(assert (not (= (_ bv6 8) x44)))
(assert (not (= (_ bv6 8) (_ bv2 8))))
(assert (not (= (_ bv6 8) (_ bv4 8))))
(assert (not (= (_ bv6 8) x54)))
(assert (not (= (_ bv6 8) x55)))
(assert (not (= (_ bv9 8) x35)))
(assert (not (= (_ bv9 8) x43)))
(assert (not (= (_ bv9 8) x44)))
(assert (not (= (_ bv9 8) (_ bv2 8))))
(assert (not (= (_ bv9 8) (_ bv4 8))))
(assert (not (= (_ bv9 8) x54)))
(assert (not (= (_ bv9 8) x55)))
(assert (not (= x35 x43)))
(assert (not (= x35 x44)))
(assert (not (= x35 (_ bv2 8))))
(assert (not (= x35 (_ bv4 8))))
(assert (not (= x35 x54)))
(assert (not (= x35 x55)))
(assert (not (= x43 x44)))
(assert (not (= x43 (_ bv2 8))))
(assert (not (= x43 (_ bv4 8))))
(assert (not (= x43 x54)))
(assert (not (= x43 x55)))
(assert (not (= x44 (_ bv2 8))))
(assert (not (= x44 (_ bv4 8))))
(assert (not (= x44 x54)))
(assert (not (= x44 x55)))
(assert (not (= (_ bv2 8) (_ bv4 8))))
(assert (not (= (_ bv2 8) x54)))
(assert (not (= (_ bv2 8) x55)))
(assert (not (= (_ bv4 8) x54)))
(assert (not (= (_ bv4 8) x55)))
(assert (not (= x54 x55)))
(assert (not (= x36 (_ bv3 8))))
(assert (not (= x36 (_ bv5 8))))
(assert (not (= x36 x46)))
(assert (not (= x36 (_ bv4 8))))
(assert (not (= x36 x48)))
(assert (not (= x36 (_ bv8 8))))
(assert (not (= x36 x57)))
(assert (not (= x36 x58)))
(assert (not (= (_ bv3 8) (_ bv5 8))))
(assert (not (= (_ bv3 8) x46)))
(assert (not (= (_ bv3 8) (_ bv4 8))))
(assert (not (= (_ bv3 8) x48)))
(assert (not (= (_ bv3 8) (_ bv8 8))))
(assert (not (= (_ bv3 8) x57)))
(assert (not (= (_ bv3 8) x58)))
(assert (not (= (_ bv5 8) x46)))
(assert (not (= (_ bv5 8) (_ bv4 8))))
(assert (not (= (_ bv5 8) x48)))
(assert (not (= (_ bv5 8) (_ bv8 8))))
(assert (not (= (_ bv5 8) x57)))
(assert (not (= (_ bv5 8) x58)))
(assert (not (= x46 (_ bv4 8))))
(assert (not (= x46 x48)))
(assert (not (= x46 (_ bv8 8))))
(assert (not (= x46 x57)))
(assert (not (= x46 x58)))
(assert (not (= (_ bv4 8) x48)))
(assert (not (= (_ bv4 8) (_ bv8 8))))
(assert (not (= (_ bv4 8) x57)))
(assert (not (= (_ bv4 8) x58)))
(assert (not (= x48 (_ bv8 8))))
(assert (not (= x48 x57)))
(assert (not (= x48 x58)))
(assert (not (= (_ bv8 8) x57)))
(assert (not (= (_ bv8 8) x58)))
(assert (not (= x57 x58)))
(assert (not (= x60 (_ bv3 8))))
(assert (not (= x60 x62)))
(assert (not (= x60 (_ bv9 8))))
(assert (not (= x60 x71)))
(assert (not (= x60 (_ bv4 8))))
(assert (not (= x60 x80)))
(assert (not (= x60 (_ bv8 8))))
(assert (not (= x60 x82)))
(assert (not (= (_ bv3 8) x62)))
(assert (not (= (_ bv3 8) (_ bv9 8))))
(assert (not (= (_ bv3 8) x71)))
(assert (not (= (_ bv3 8) (_ bv4 8))))
(assert (not (= (_ bv3 8) x80)))
(assert (not (= (_ bv3 8) (_ bv8 8))))
(assert (not (= (_ bv3 8) x82)))
(assert (not (= x62 (_ bv9 8))))
(assert (not (= x62 x71)))
(assert (not (= x62 (_ bv4 8))))
(assert (not (= x62 x80)))
(assert (not (= x62 (_ bv8 8))))
(assert (not (= x62 x82)))
(assert (not (= (_ bv9 8) x71)))
(assert (not (= (_ bv9 8) (_ bv4 8))))
(assert (not (= (_ bv9 8) x80)))
(assert (not (= (_ bv9 8) (_ bv8 8))))
(assert (not (= (_ bv9 8) x82)))
(assert (not (= x71 (_ bv4 8))))
(assert (not (= x71 x80)))
(assert (not (= x71 (_ bv8 8))))
(assert (not (= x71 x82)))
(assert (not (= (_ bv4 8) x80)))
(assert (not (= (_ bv4 8) (_ bv8 8))))
(assert (not (= (_ bv4 8) x82)))
(assert (not (= x80 (_ bv8 8))))
(assert (not (= x80 x82)))
(assert (not (= (_ bv8 8) x82)))
(assert (not (= x63 (_ bv4 8))))
(assert (not (= x63 (_ bv7 8))))
(assert (not (= x63 (_ bv8 8))))
(assert (not (= x63 x74)))
(assert (not (= x63 x75)))
(assert (not (= x63 x83)))
(assert (not (= x63 (_ bv1 8))))
(assert (not (= x63 (_ bv6 8))))
(assert (not (= (_ bv4 8) (_ bv7 8))))
(assert (not (= (_ bv4 8) (_ bv8 8))))
(assert (not (= (_ bv4 8) x74)))
(assert (not (= (_ bv4 8) x75)))
(assert (not (= (_ bv4 8) x83)))
(assert (not (= (_ bv4 8) (_ bv1 8))))
(assert (not (= (_ bv4 8) (_ bv6 8))))
(assert (not (= (_ bv7 8) (_ bv8 8))))
(assert (not (= (_ bv7 8) x74)))
(assert (not (= (_ bv7 8) x75)))
(assert (not (= (_ bv7 8) x83)))
(assert (not (= (_ bv7 8) (_ bv1 8))))
(assert (not (= (_ bv7 8) (_ bv6 8))))
(assert (not (= (_ bv8 8) x74)))
(assert (not (= (_ bv8 8) x75)))
(assert (not (= (_ bv8 8) x83)))
(assert (not (= (_ bv8 8) (_ bv1 8))))
(assert (not (= (_ bv8 8) (_ bv6 8))))
(assert (not (= x74 x75)))
(assert (not (= x74 x83)))
(assert (not (= x74 (_ bv1 8))))
(assert (not (= x74 (_ bv6 8))))
(assert (not (= x75 x83)))
(assert (not (= x75 (_ bv1 8))))
(assert (not (= x75 (_ bv6 8))))
(assert (not (= x83 (_ bv1 8))))
(assert (not (= x83 (_ bv6 8))))
(assert (not (= (_ bv1 8) (_ bv6 8))))
(assert (not (= x66 (_ bv5 8))))
(assert (not (= x66 x68)))
(assert (not (= x66 x76)))
(assert (not (= x66 x77)))
(assert (not (= x66 (_ bv7 8))))
(assert (not (= x66 (_ bv9 8))))
(assert (not (= x66 x87)))
(assert (not (= x66 x88)))
(assert (not (= (_ bv5 8) x68)))
(assert (not (= (_ bv5 8) x76)))
(assert (not (= (_ bv5 8) x77)))
(assert (not (= (_ bv5 8) (_ bv7 8))))
(assert (not (= (_ bv5 8) (_ bv9 8))))
(assert (not (= (_ bv5 8) x87)))
(assert (not (= (_ bv5 8) x88)))
(assert (not (= x68 x76)))
(assert (not (= x68 x77)))
(assert (not (= x68 (_ bv7 8))))
(assert (not (= x68 (_ bv9 8))))
(assert (not (= x68 x87)))
(assert (not (= x68 x88)))
(assert (not (= x76 x77)))
(assert (not (= x76 (_ bv7 8))))
(assert (not (= x76 (_ bv9 8))))
(assert (not (= x76 x87)))
(assert (not (= x76 x88)))
(assert (not (= x77 (_ bv7 8))))
(assert (not (= x77 (_ bv9 8))))
(assert (not (= x77 x87)))
(assert (not (= x77 x88)))
(assert (not (= (_ bv7 8) (_ bv9 8))))
(assert (not (= (_ bv7 8) x87)))
(assert (not (= (_ bv7 8) x88)))
(assert (not (= (_ bv9 8) x87)))
(assert (not (= (_ bv9 8) x88)))
(assert (not (= x87 x88)))
(check-sat)
(exit)
